c nIsolatedPIs 8
c maxPI 192
p cnf 715 1570
c gate 193 87 183 0
87 -193 0
183 -193 0
-87 -183 193 0
c gate 194 88 184 0
88 -194 0
184 -194 0
-88 -184 194 0
c gate 195 -193 -194 0
-193 -195 0
-194 -195 0
193 194 195 0
c gate 196 -86 -182 0
-86 -196 0
-182 -196 0
86 182 196 0
c gate 197 -87 -183 0
-87 -197 0
-183 -197 0
87 183 197 0
c gate 198 -196 -197 0
-196 -198 0
-197 -198 0
196 197 198 0
c gate 199 -85 -181 0
-85 -199 0
-181 -199 0
85 181 199 0
c gate 200 84 180 0
84 -200 0
180 -200 0
-84 -180 200 0
c gate 201 -83 -179 0
-83 -201 0
-179 -201 0
83 179 201 0
c gate 202 -84 -180 0
-84 -202 0
-180 -202 0
84 180 202 0
c gate 203 -201 -202 0
-201 -203 0
-202 -203 0
201 202 203 0
c gate 204 -82 -178 0
-82 -204 0
-178 -204 0
82 178 204 0
c gate 205 81 177 0
81 -205 0
177 -205 0
-81 -177 205 0
c gate 206 -204 205 0
-204 -206 0
205 -206 0
204 -205 206 0
c gate 207 83 179 0
83 -207 0
179 -207 0
-83 -179 207 0
c gate 208 82 178 0
82 -208 0
178 -208 0
-82 -178 208 0
c gate 209 -207 -208 0
-207 -209 0
-208 -209 0
207 208 209 0
c gate 210 -206 209 0
-206 -210 0
209 -210 0
206 -209 210 0
c gate 211 203 -210 0
203 -211 0
-210 -211 0
-203 210 211 0
c gate 212 -200 -211 0
-200 -212 0
-211 -212 0
200 211 212 0
c gate 213 -199 -212 0
-199 -213 0
-212 -213 0
199 212 213 0
c gate 214 85 181 0
85 -214 0
181 -214 0
-85 -181 214 0
c gate 215 -213 -214 0
-213 -215 0
-214 -215 0
213 214 215 0
c gate 216 86 182 0
86 -216 0
182 -216 0
-86 -182 216 0
c gate 217 215 -216 0
215 -217 0
-216 -217 0
-215 216 217 0
c gate 218 79 175 0
79 -218 0
175 -218 0
-79 -175 218 0
c gate 219 80 176 0
80 -219 0
176 -219 0
-80 -176 219 0
c gate 220 -218 -219 0
-218 -220 0
-219 -220 0
218 219 220 0
c gate 221 -80 -176 0
-80 -221 0
-176 -221 0
80 176 221 0
c gate 222 -220 -221 0
-220 -222 0
-221 -222 0
220 221 222 0
c gate 223 -77 -173 0
-77 -223 0
-173 -223 0
77 173 223 0
c gate 224 76 172 0
76 -224 0
172 -224 0
-76 -172 224 0
c gate 225 73 169 0
73 -225 0
169 -225 0
-73 -169 225 0
c gate 226 74 170 0
74 -226 0
170 -226 0
-74 -170 226 0
c gate 227 -225 -226 0
-225 -227 0
-226 -227 0
225 226 227 0
c gate 228 -74 -170 0
-74 -228 0
-170 -228 0
74 170 228 0
c gate 229 -227 -228 0
-227 -229 0
-228 -229 0
227 228 229 0
c gate 230 75 171 0
75 -230 0
171 -230 0
-75 -171 230 0
c gate 231 -229 -230 0
-229 -231 0
-230 -231 0
229 230 231 0
c gate 232 -75 -171 0
-75 -232 0
-171 -232 0
75 171 232 0
c gate 233 -76 -172 0
-76 -233 0
-172 -233 0
76 172 233 0
c gate 234 -224 -233 0
-224 -234 0
-233 -234 0
224 233 234 0
c gate 235 -232 234 0
-232 -235 0
234 -235 0
232 -234 235 0
c gate 236 -231 235 0
-231 -236 0
235 -236 0
231 -235 236 0
c gate 237 -224 -236 0
-224 -237 0
-236 -237 0
224 236 237 0
c gate 238 -223 -237 0
-223 -238 0
-237 -238 0
223 237 238 0
c gate 239 77 173 0
77 -239 0
173 -239 0
-77 -173 239 0
c gate 240 78 174 0
78 -240 0
174 -240 0
-78 -174 240 0
c gate 241 -239 -240 0
-239 -241 0
-240 -241 0
239 240 241 0
c gate 242 -238 241 0
-238 -242 0
241 -242 0
238 -241 242 0
c gate 243 -79 -175 0
-79 -243 0
-175 -243 0
79 175 243 0
c gate 244 -78 -174 0
-78 -244 0
-174 -244 0
78 174 244 0
c gate 245 -221 -244 0
-221 -245 0
-244 -245 0
221 244 245 0
c gate 246 -243 245 0
-243 -246 0
245 -246 0
243 -245 246 0
c gate 247 -242 246 0
-242 -247 0
246 -247 0
242 -246 247 0
c gate 248 -222 -247 0
-222 -248 0
-247 -248 0
222 247 248 0
c gate 249 72 168 0
72 -249 0
168 -249 0
-72 -168 249 0
c gate 250 -72 -168 0
-72 -250 0
-168 -250 0
72 168 250 0
c gate 251 71 167 0
71 -251 0
167 -251 0
-71 -167 251 0
c gate 252 70 166 0
70 -252 0
166 -252 0
-70 -166 252 0
c gate 253 -69 -165 0
-69 -253 0
-165 -253 0
69 165 253 0
c gate 254 69 165 0
69 -254 0
165 -254 0
-69 -165 254 0
c gate 255 -68 -164 0
-68 -255 0
-164 -255 0
68 164 255 0
c gate 256 67 163 0
67 -256 0
163 -256 0
-67 -163 256 0
c gate 257 68 164 0
68 -257 0
164 -257 0
-68 -164 257 0
c gate 258 -256 -257 0
-256 -258 0
-257 -258 0
256 257 258 0
c gate 259 66 162 0
66 -259 0
162 -259 0
-66 -162 259 0
c gate 260 65 161 0
65 -260 0
161 -260 0
-65 -161 260 0
c gate 261 -259 -260 0
-259 -261 0
-260 -261 0
259 260 261 0
c gate 262 -67 -163 0
-67 -262 0
-163 -262 0
67 163 262 0
c gate 263 -66 -162 0
-66 -263 0
-162 -263 0
66 162 263 0
c gate 264 -262 -263 0
-262 -264 0
-263 -264 0
262 263 264 0
c gate 265 -261 264 0
-261 -265 0
264 -265 0
261 -264 265 0
c gate 266 258 -265 0
258 -266 0
-265 -266 0
-258 265 266 0
c gate 267 -255 -266 0
-255 -267 0
-266 -267 0
255 266 267 0
c gate 268 -254 -267 0
-254 -268 0
-267 -268 0
254 267 268 0
c gate 269 -253 -268 0
-253 -269 0
-268 -269 0
253 268 269 0
c gate 270 -252 -269 0
-252 -270 0
-269 -270 0
252 269 270 0
c gate 271 -70 -166 0
-70 -271 0
-166 -271 0
70 166 271 0
c gate 272 -71 -167 0
-71 -272 0
-167 -272 0
71 167 272 0
c gate 273 -271 -272 0
-271 -273 0
-272 -273 0
271 272 273 0
c gate 274 -270 273 0
-270 -274 0
273 -274 0
270 -273 274 0
c gate 275 -251 -274 0
-251 -275 0
-274 -275 0
251 274 275 0
c gate 276 -250 -275 0
-250 -276 0
-275 -276 0
250 275 276 0
c gate 277 -249 -276 0
-249 -277 0
-276 -277 0
249 276 277 0
c gate 278 -64 -160 0
-64 -278 0
-160 -278 0
64 160 278 0
c gate 279 63 159 0
63 -279 0
159 -279 0
-63 -159 279 0
c gate 280 64 160 0
64 -280 0
160 -280 0
-64 -160 280 0
c gate 281 -279 -280 0
-279 -281 0
-280 -281 0
279 280 281 0
c gate 282 -278 -281 0
-278 -282 0
-281 -282 0
278 281 282 0
c gate 283 61 157 0
61 -283 0
157 -283 0
-61 -157 283 0
c gate 284 -61 -157 0
-61 -284 0
-157 -284 0
61 157 284 0
c gate 285 -283 -284 0
-283 -285 0
-284 -285 0
283 284 285 0
c gate 286 56 152 0
56 -286 0
152 -286 0
-56 -152 286 0
c gate 287 -55 -151 0
-55 -287 0
-151 -287 0
55 151 287 0
c gate 288 -56 -152 0
-56 -288 0
-152 -288 0
56 152 288 0
c gate 289 -287 -288 0
-287 -289 0
-288 -289 0
287 288 289 0
c gate 290 55 151 0
55 -290 0
151 -290 0
-55 -151 290 0
c gate 291 -54 -150 0
-54 -291 0
-150 -291 0
54 150 291 0
c gate 292 53 149 0
53 -292 0
149 -292 0
-53 -149 292 0
c gate 293 54 150 0
54 -293 0
150 -293 0
-54 -150 293 0
c gate 294 -292 -293 0
-292 -294 0
-293 -294 0
292 293 294 0
c gate 295 -291 -294 0
-291 -295 0
-294 -295 0
291 294 295 0
c gate 296 -290 -295 0
-290 -296 0
-295 -296 0
290 295 296 0
c gate 297 289 -296 0
289 -297 0
-296 -297 0
-289 296 297 0
c gate 298 -286 -297 0
-286 -298 0
-297 -298 0
286 297 298 0
c gate 299 49 145 0
49 -299 0
145 -299 0
-49 -145 299 0
c gate 300 50 146 0
50 -300 0
146 -300 0
-50 -146 300 0
c gate 301 -299 -300 0
-299 -301 0
-300 -301 0
299 300 301 0
c gate 302 -50 -146 0
-50 -302 0
-146 -302 0
50 146 302 0
c gate 303 -51 -147 0
-51 -303 0
-147 -303 0
51 147 303 0
c gate 304 -302 -303 0
-302 -304 0
-303 -304 0
302 303 304 0
c gate 305 -301 304 0
-301 -305 0
304 -305 0
301 -304 305 0
c gate 306 52 148 0
52 -306 0
148 -306 0
-52 -148 306 0
c gate 307 51 147 0
51 -307 0
147 -307 0
-51 -147 307 0
c gate 308 -306 -307 0
-306 -308 0
-307 -308 0
306 307 308 0
c gate 309 -305 308 0
-305 -309 0
308 -309 0
305 -308 309 0
c gate 310 -52 -148 0
-52 -310 0
-148 -310 0
52 148 310 0
c gate 311 -53 -149 0
-53 -311 0
-149 -311 0
53 149 311 0
c gate 312 -291 -311 0
-291 -312 0
-311 -312 0
291 311 312 0
c gate 313 -310 312 0
-310 -313 0
312 -313 0
310 -312 313 0
c gate 314 289 294 0
289 -314 0
294 -314 0
-289 -294 314 0
c gate 315 313 314 0
313 -315 0
314 -315 0
-313 -314 315 0
c gate 316 298 315 0
298 -316 0
315 -316 0
-298 -315 316 0
c gate 317 -309 316 0
-309 -317 0
316 -317 0
309 -316 317 0
c gate 318 298 -317 0
298 -318 0
-317 -318 0
-298 317 318 0
c gate 319 60 156 0
60 -319 0
156 -319 0
-60 -156 319 0
c gate 320 59 155 0
59 -320 0
155 -320 0
-59 -155 320 0
c gate 321 -319 -320 0
-319 -321 0
-320 -321 0
319 320 321 0
c gate 322 -58 -154 0
-58 -322 0
-154 -322 0
58 154 322 0
c gate 323 -57 -153 0
-57 -323 0
-153 -323 0
57 153 323 0
c gate 324 -322 -323 0
-322 -324 0
-323 -324 0
322 323 324 0
c gate 325 321 324 0
321 -325 0
324 -325 0
-321 -324 325 0
c gate 326 57 153 0
57 -326 0
153 -326 0
-57 -153 326 0
c gate 327 58 154 0
58 -327 0
154 -327 0
-58 -154 327 0
c gate 328 -326 -327 0
-326 -328 0
-327 -328 0
326 327 328 0
c gate 329 -60 -156 0
-60 -329 0
-156 -329 0
60 156 329 0
c gate 330 -59 -155 0
-59 -330 0
-155 -330 0
59 155 330 0
c gate 331 -329 -330 0
-329 -331 0
-330 -331 0
329 330 331 0
c gate 332 328 331 0
328 -332 0
331 -332 0
-328 -331 332 0
c gate 333 325 332 0
325 -333 0
332 -333 0
-325 -332 333 0
c gate 334 -318 333 0
-318 -334 0
333 -334 0
318 -333 334 0
c gate 335 -321 -329 0
-321 -335 0
-329 -335 0
321 329 335 0
c gate 336 -322 -328 0
-322 -336 0
-328 -336 0
322 328 336 0
c gate 337 331 336 0
331 -337 0
336 -337 0
-331 -336 337 0
c gate 338 -335 -337 0
-335 -338 0
-337 -338 0
335 337 338 0
c gate 339 -334 338 0
-334 -339 0
338 -339 0
334 -338 339 0
c gate 340 285 -339 0
285 -340 0
-339 -340 0
-285 339 340 0
c gate 341 62 158 0
62 -341 0
158 -341 0
-62 -158 341 0
c gate 342 -283 -341 0
-283 -342 0
-341 -342 0
283 341 342 0
c gate 343 -340 342 0
-340 -343 0
342 -343 0
340 -342 343 0
c gate 344 -63 -159 0
-63 -344 0
-159 -344 0
63 159 344 0
c gate 345 -62 -158 0
-62 -345 0
-158 -345 0
62 158 345 0
c gate 346 -278 -345 0
-278 -346 0
-345 -346 0
278 345 346 0
c gate 347 -344 346 0
-344 -347 0
346 -347 0
344 -346 347 0
c gate 348 -343 347 0
-343 -348 0
347 -348 0
343 -347 348 0
c gate 349 -282 -348 0
-282 -349 0
-348 -349 0
282 348 349 0
c gate 350 -65 -161 0
-65 -350 0
-161 -350 0
65 161 350 0
c gate 351 -255 -350 0
-255 -351 0
-350 -351 0
255 350 351 0
c gate 352 258 351 0
258 -352 0
351 -352 0
-258 -351 352 0
c gate 353 261 264 0
261 -353 0
264 -353 0
-261 -264 353 0
c gate 354 352 353 0
352 -354 0
353 -354 0
-352 -353 354 0
c gate 355 -349 354 0
-349 -355 0
354 -355 0
349 -354 355 0
c gate 356 -251 -252 0
-251 -356 0
-252 -356 0
251 252 356 0
c gate 357 -254 -272 0
-254 -357 0
-272 -357 0
254 272 357 0
c gate 358 356 357 0
356 -358 0
357 -358 0
-356 -357 358 0
c gate 359 -253 -271 0
-253 -359 0
-271 -359 0
253 271 359 0
c gate 360 -249 -250 0
-249 -360 0
-250 -360 0
249 250 360 0
c gate 361 359 360 0
359 -361 0
360 -361 0
-359 -360 361 0
c gate 362 358 361 0
358 -362 0
361 -362 0
-358 -361 362 0
c gate 363 355 362 0
355 -363 0
362 -363 0
-355 -362 363 0
c gate 364 277 -363 0
277 -364 0
-363 -364 0
-277 363 364 0
c gate 365 231 235 0
231 -365 0
235 -365 0
-231 -235 365 0
c gate 366 220 -223 0
220 -366 0
-223 -366 0
-220 223 366 0
c gate 367 -73 -169 0
-73 -367 0
-169 -367 0
73 169 367 0
c gate 368 -228 -367 0
-228 -368 0
-367 -368 0
228 367 368 0
c gate 369 241 368 0
241 -369 0
368 -369 0
-241 -368 369 0
c gate 370 366 369 0
366 -370 0
369 -370 0
-366 -369 370 0
c gate 371 246 370 0
246 -371 0
370 -371 0
-246 -370 371 0
c gate 372 365 371 0
365 -372 0
371 -372 0
-365 -371 372 0
c gate 373 -364 372 0
-364 -373 0
372 -373 0
364 -372 373 0
c gate 374 248 -373 0
248 -374 0
-373 -374 0
-248 373 374 0
c gate 375 -81 -177 0
-81 -375 0
-177 -375 0
81 177 375 0
c gate 376 -199 -204 0
-199 -376 0
-204 -376 0
199 204 376 0
c gate 377 -375 376 0
-375 -377 0
376 -377 0
375 -376 377 0
c gate 378 203 377 0
203 -378 0
377 -378 0
-203 -377 378 0
c gate 379 212 378 0
212 -379 0
378 -379 0
-212 -378 379 0
c gate 380 -374 379 0
-374 -380 0
379 -380 0
374 -379 380 0
c gate 381 217 -380 0
217 -381 0
-380 -381 0
-217 380 381 0
c gate 382 198 -381 0
198 -382 0
-381 -382 0
-198 381 382 0
c gate 383 195 -382 0
195 -383 0
-382 -383 0
-195 382 383 0
c gate 384 48 144 0
48 -384 0
144 -384 0
-48 -144 384 0
c gate 385 -48 -144 0
-48 -385 0
-144 -385 0
48 144 385 0
c gate 386 -47 -143 0
-47 -386 0
-143 -386 0
47 143 386 0
c gate 387 -385 -386 0
-385 -387 0
-386 -387 0
385 386 387 0
c gate 388 45 141 0
45 -388 0
141 -388 0
-45 -141 388 0
c gate 389 46 142 0
46 -389 0
142 -389 0
-46 -142 389 0
c gate 390 -388 -389 0
-388 -390 0
-389 -390 0
388 389 390 0
c gate 391 -46 -142 0
-46 -391 0
-142 -391 0
46 142 391 0
c gate 392 -390 -391 0
-390 -392 0
-391 -392 0
390 391 392 0
c gate 393 47 143 0
47 -393 0
143 -393 0
-47 -143 393 0
c gate 394 -392 -393 0
-392 -394 0
-393 -394 0
392 393 394 0
c gate 395 44 140 0
44 -395 0
140 -395 0
-44 -140 395 0
c gate 396 -44 -140 0
-44 -396 0
-140 -396 0
44 140 396 0
c gate 397 -43 -139 0
-43 -397 0
-139 -397 0
43 139 397 0
c gate 398 -396 -397 0
-396 -398 0
-397 -398 0
396 397 398 0
c gate 399 -42 -138 0
-42 -399 0
-138 -399 0
42 138 399 0
c gate 400 41 137 0
41 -400 0
137 -400 0
-41 -137 400 0
c gate 401 -399 400 0
-399 -401 0
400 -401 0
399 -400 401 0
c gate 402 43 139 0
43 -402 0
139 -402 0
-43 -139 402 0
c gate 403 42 138 0
42 -403 0
138 -403 0
-42 -138 403 0
c gate 404 -402 -403 0
-402 -404 0
-403 -404 0
402 403 404 0
c gate 405 -401 404 0
-401 -405 0
404 -405 0
401 -404 405 0
c gate 406 398 -405 0
398 -406 0
-405 -406 0
-398 405 406 0
c gate 407 -395 -406 0
-395 -407 0
-406 -407 0
395 406 407 0
c gate 408 -15 -111 0
-15 -408 0
-111 -408 0
15 111 408 0
c gate 409 -14 -110 0
-14 -409 0
-110 -409 0
14 110 409 0
c gate 410 -408 -409 0
-408 -410 0
-409 -410 0
408 409 410 0
c gate 411 14 110 0
14 -411 0
110 -411 0
-14 -110 411 0
c gate 412 13 109 0
13 -412 0
109 -412 0
-13 -109 412 0
c gate 413 -411 -412 0
-411 -413 0
-412 -413 0
411 412 413 0
c gate 414 -13 -109 0
-13 -414 0
-109 -414 0
13 109 414 0
c gate 415 -12 -108 0
-12 -415 0
-108 -415 0
12 108 415 0
c gate 416 -414 -415 0
-414 -416 0
-415 -416 0
414 415 416 0
c gate 417 9 105 0
9 -417 0
105 -417 0
-9 -105 417 0
c gate 418 10 106 0
10 -418 0
106 -418 0
-10 -106 418 0
c gate 419 -417 -418 0
-417 -419 0
-418 -419 0
417 418 419 0
c gate 420 -11 -107 0
-11 -420 0
-107 -420 0
11 107 420 0
c gate 421 -10 -106 0
-10 -421 0
-106 -421 0
10 106 421 0
c gate 422 -420 -421 0
-420 -422 0
-421 -422 0
420 421 422 0
c gate 423 -419 422 0
-419 -423 0
422 -423 0
419 -422 423 0
c gate 424 11 107 0
11 -424 0
107 -424 0
-11 -107 424 0
c gate 425 12 108 0
12 -425 0
108 -425 0
-12 -108 425 0
c gate 426 -424 -425 0
-424 -426 0
-425 -426 0
424 425 426 0
c gate 427 -423 426 0
-423 -427 0
426 -427 0
423 -426 427 0
c gate 428 2 98 0
2 -428 0
98 -428 0
-2 -98 428 0
c gate 429 1 97 0
1 -429 0
97 -429 0
-1 -97 429 0
c gate 430 -428 -429 0
-428 -430 0
-429 -430 0
428 429 430 0
c gate 431 -3 -99 0
-3 -431 0
-99 -431 0
3 99 431 0
c gate 432 -2 -98 0
-2 -432 0
-98 -432 0
2 98 432 0
c gate 433 -431 -432 0
-431 -433 0
-432 -433 0
431 432 433 0
c gate 434 -430 433 0
-430 -434 0
433 -434 0
430 -433 434 0
c gate 435 4 100 0
4 -435 0
100 -435 0
-4 -100 435 0
c gate 436 3 99 0
3 -436 0
99 -436 0
-3 -99 436 0
c gate 437 -435 -436 0
-435 -437 0
-436 -437 0
435 436 437 0
c gate 438 -434 437 0
-434 -438 0
437 -438 0
434 -437 438 0
c gate 439 -4 -100 0
-4 -439 0
-100 -439 0
4 100 439 0
c gate 440 -5 -101 0
-5 -440 0
-101 -440 0
5 101 440 0
c gate 441 -439 -440 0
-439 -441 0
-440 -441 0
439 440 441 0
c gate 442 -438 441 0
-438 -442 0
441 -442 0
438 -441 442 0
c gate 443 6 102 0
6 -443 0
102 -443 0
-6 -102 443 0
c gate 444 5 101 0
5 -444 0
101 -444 0
-5 -101 444 0
c gate 445 -443 -444 0
-443 -445 0
-444 -445 0
443 444 445 0
c gate 446 -442 445 0
-442 -446 0
445 -446 0
442 -445 446 0
c gate 447 -7 -103 0
-7 -447 0
-103 -447 0
7 103 447 0
c gate 448 -6 -102 0
-6 -448 0
-102 -448 0
6 102 448 0
c gate 449 -447 -448 0
-447 -449 0
-448 -449 0
447 448 449 0
c gate 450 -446 449 0
-446 -450 0
449 -450 0
446 -449 450 0
c gate 451 8 104 0
8 -451 0
104 -451 0
-8 -104 451 0
c gate 452 7 103 0
7 -452 0
103 -452 0
-7 -103 452 0
c gate 453 -451 -452 0
-451 -453 0
-452 -453 0
451 452 453 0
c gate 454 -450 453 0
-450 -454 0
453 -454 0
450 -453 454 0
c gate 455 -8 -104 0
-8 -455 0
-104 -455 0
8 104 455 0
c gate 456 -9 -105 0
-9 -456 0
-105 -456 0
9 105 456 0
c gate 457 -455 -456 0
-455 -457 0
-456 -457 0
455 456 457 0
c gate 458 419 457 0
419 -458 0
457 -458 0
-419 -457 458 0
c gate 459 422 458 0
422 -459 0
458 -459 0
-422 -458 459 0
c gate 460 -454 459 0
-454 -460 0
459 -460 0
454 -459 460 0
c gate 461 427 -460 0
427 -461 0
-460 -461 0
-427 460 461 0
c gate 462 416 -461 0
416 -462 0
-461 -462 0
-416 461 462 0
c gate 463 413 -462 0
413 -463 0
-462 -463 0
-413 462 463 0
c gate 464 410 -463 0
410 -464 0
-463 -464 0
-410 463 464 0
c gate 465 416 -427 0
416 -465 0
-427 -465 0
-416 427 465 0
c gate 466 413 -465 0
413 -466 0
-465 -466 0
-413 465 466 0
c gate 467 410 -466 0
410 -467 0
-466 -467 0
-410 466 467 0
c gate 468 15 111 0
15 -468 0
111 -468 0
-15 -111 468 0
c gate 469 16 112 0
16 -469 0
112 -469 0
-16 -112 469 0
c gate 470 -468 -469 0
-468 -470 0
-469 -470 0
468 469 470 0
c gate 471 -467 470 0
-467 -471 0
470 -471 0
467 -470 471 0
c gate 472 -464 471 0
-464 -472 0
471 -472 0
464 -471 472 0
c gate 473 -22 -118 0
-22 -473 0
-118 -473 0
22 118 473 0
c gate 474 21 117 0
21 -474 0
117 -474 0
-21 -117 474 0
c gate 475 -473 474 0
-473 -475 0
474 -475 0
473 -474 475 0
c gate 476 23 119 0
23 -476 0
119 -476 0
-23 -119 476 0
c gate 477 22 118 0
22 -477 0
118 -477 0
-22 -118 477 0
c gate 478 -476 -477 0
-476 -478 0
-477 -478 0
476 477 478 0
c gate 479 -475 478 0
-475 -479 0
478 -479 0
475 -478 479 0
c gate 480 -23 -119 0
-23 -480 0
-119 -480 0
23 119 480 0
c gate 481 -24 -120 0
-24 -481 0
-120 -481 0
24 120 481 0
c gate 482 -480 -481 0
-480 -482 0
-481 -482 0
480 481 482 0
c gate 483 -21 -117 0
-21 -483 0
-117 -483 0
21 117 483 0
c gate 484 -473 -483 0
-473 -484 0
-483 -484 0
473 483 484 0
c gate 485 24 120 0
24 -485 0
120 -485 0
-24 -120 485 0
c gate 486 -20 -116 0
-20 -486 0
-116 -486 0
20 116 486 0
c gate 487 -485 -486 0
-485 -487 0
-486 -487 0
485 486 487 0
c gate 488 484 487 0
484 -488 0
487 -488 0
-484 -487 488 0
c gate 489 482 488 0
482 -489 0
488 -489 0
-482 -488 489 0
c gate 490 479 489 0
479 -490 0
489 -490 0
-479 -489 490 0
c gate 491 18 114 0
18 -491 0
114 -491 0
-18 -114 491 0
c gate 492 17 113 0
17 -492 0
113 -492 0
-17 -113 492 0
c gate 493 -491 -492 0
-491 -493 0
-492 -493 0
491 492 493 0
c gate 494 -16 -112 0
-16 -494 0
-112 -494 0
16 112 494 0
c gate 495 -17 -113 0
-17 -495 0
-113 -495 0
17 113 495 0
c gate 496 -494 -495 0
-494 -496 0
-495 -496 0
494 495 496 0
c gate 497 493 496 0
493 -497 0
496 -497 0
-493 -496 497 0
c gate 498 -19 -115 0
-19 -498 0
-115 -498 0
19 115 498 0
c gate 499 -18 -114 0
-18 -499 0
-114 -499 0
18 114 499 0
c gate 500 -498 -499 0
-498 -500 0
-499 -500 0
498 499 500 0
c gate 501 19 115 0
19 -501 0
115 -501 0
-19 -115 501 0
c gate 502 20 116 0
20 -502 0
116 -502 0
-20 -116 502 0
c gate 503 -501 -502 0
-501 -503 0
-502 -503 0
501 502 503 0
c gate 504 500 503 0
500 -504 0
503 -504 0
-500 -503 504 0
c gate 505 497 504 0
497 -505 0
504 -505 0
-497 -504 505 0
c gate 506 490 505 0
490 -506 0
505 -506 0
-490 -505 506 0
c gate 507 -472 506 0
-472 -507 0
506 -507 0
472 -506 507 0
c gate 508 36 132 0
36 -508 0
132 -508 0
-36 -132 508 0
c gate 509 -35 -131 0
-35 -509 0
-131 -509 0
35 131 509 0
c gate 510 -36 -132 0
-36 -510 0
-132 -510 0
36 132 510 0
c gate 511 -509 -510 0
-509 -511 0
-510 -511 0
509 510 511 0
c gate 512 -34 -130 0
-34 -512 0
-130 -512 0
34 130 512 0
c gate 513 33 129 0
33 -513 0
129 -513 0
-33 -129 513 0
c gate 514 -512 513 0
-512 -514 0
513 -514 0
512 -513 514 0
c gate 515 35 131 0
35 -515 0
131 -515 0
-35 -131 515 0
c gate 516 34 130 0
34 -516 0
130 -516 0
-34 -130 516 0
c gate 517 -515 -516 0
-515 -517 0
-516 -517 0
515 516 517 0
c gate 518 -514 517 0
-514 -518 0
517 -518 0
514 -517 518 0
c gate 519 511 -518 0
511 -519 0
-518 -519 0
-511 518 519 0
c gate 520 -508 -519 0
-508 -520 0
-519 -520 0
508 519 520 0
c gate 521 -33 -129 0
-33 -521 0
-129 -521 0
33 129 521 0
c gate 522 -512 -521 0
-512 -522 0
-521 -522 0
512 521 522 0
c gate 523 511 522 0
511 -523 0
522 -523 0
-511 -522 523 0
c gate 524 520 523 0
520 -524 0
523 -524 0
-520 -523 524 0
c gate 525 -30 -126 0
-30 -525 0
-126 -525 0
30 126 525 0
c gate 526 -31 -127 0
-31 -526 0
-127 -526 0
31 127 526 0
c gate 527 -525 -526 0
-525 -527 0
-526 -527 0
525 526 527 0
c gate 528 -32 -128 0
-32 -528 0
-128 -528 0
32 128 528 0
c gate 529 -29 -125 0
-29 -529 0
-125 -529 0
29 125 529 0
c gate 530 -528 -529 0
-528 -530 0
-529 -530 0
528 529 530 0
c gate 531 527 530 0
527 -531 0
530 -531 0
-527 -530 531 0
c gate 532 29 125 0
29 -532 0
125 -532 0
-29 -125 532 0
c gate 533 30 126 0
30 -533 0
126 -533 0
-30 -126 533 0
c gate 534 -532 -533 0
-532 -534 0
-533 -534 0
532 533 534 0
c gate 535 31 127 0
31 -535 0
127 -535 0
-31 -127 535 0
c gate 536 32 128 0
32 -536 0
128 -536 0
-32 -128 536 0
c gate 537 -535 -536 0
-535 -537 0
-536 -537 0
535 536 537 0
c gate 538 534 537 0
534 -538 0
537 -538 0
-534 -537 538 0
c gate 539 531 538 0
531 -539 0
538 -539 0
-531 -538 539 0
c gate 540 27 123 0
27 -540 0
123 -540 0
-27 -123 540 0
c gate 541 28 124 0
28 -541 0
124 -541 0
-28 -124 541 0
c gate 542 -540 -541 0
-540 -542 0
-541 -542 0
540 541 542 0
c gate 543 -25 -121 0
-25 -543 0
-121 -543 0
25 121 543 0
c gate 544 -28 -124 0
-28 -544 0
-124 -544 0
28 124 544 0
c gate 545 -543 -544 0
-543 -545 0
-544 -545 0
543 544 545 0
c gate 546 542 545 0
542 -546 0
545 -546 0
-542 -545 546 0
c gate 547 25 121 0
25 -547 0
121 -547 0
-25 -121 547 0
c gate 548 26 122 0
26 -548 0
122 -548 0
-26 -122 548 0
c gate 549 -547 -548 0
-547 -549 0
-548 -549 0
547 548 549 0
c gate 550 -26 -122 0
-26 -550 0
-122 -550 0
26 122 550 0
c gate 551 -27 -123 0
-27 -551 0
-123 -551 0
27 123 551 0
c gate 552 -550 -551 0
-550 -552 0
-551 -552 0
550 551 552 0
c gate 553 549 552 0
549 -553 0
552 -553 0
-549 -552 553 0
c gate 554 546 553 0
546 -554 0
553 -554 0
-546 -553 554 0
c gate 555 -39 -135 0
-39 -555 0
-135 -555 0
39 135 555 0
c gate 556 -40 -136 0
-40 -556 0
-136 -556 0
40 136 556 0
c gate 557 -555 -556 0
-555 -557 0
-556 -557 0
555 556 557 0
c gate 558 -38 -134 0
-38 -558 0
-134 -558 0
38 134 558 0
c gate 559 -37 -133 0
-37 -559 0
-133 -559 0
37 133 559 0
c gate 560 -558 -559 0
-558 -560 0
-559 -560 0
558 559 560 0
c gate 561 557 560 0
557 -561 0
560 -561 0
-557 -560 561 0
c gate 562 554 561 0
554 -562 0
561 -562 0
-554 -561 562 0
c gate 563 539 562 0
539 -563 0
562 -563 0
-539 -562 563 0
c gate 564 524 563 0
524 -564 0
563 -564 0
-524 -563 564 0
c gate 565 507 564 0
507 -565 0
564 -565 0
-507 -564 565 0
c gate 566 -549 552 0
-549 -566 0
552 -566 0
549 -552 566 0
c gate 567 542 -566 0
542 -567 0
-566 -567 0
-542 566 567 0
c gate 568 -544 -567 0
-544 -568 0
-567 -568 0
544 567 568 0
c gate 569 -493 500 0
-493 -569 0
500 -569 0
493 -500 569 0
c gate 570 503 -569 0
503 -570 0
-569 -570 0
-503 569 570 0
c gate 571 490 -570 0
490 -571 0
-570 -571 0
-490 570 571 0
c gate 572 -479 482 0
-479 -572 0
482 -572 0
479 -482 572 0
c gate 573 -485 -572 0
-485 -573 0
-572 -573 0
485 572 573 0
c gate 574 -571 573 0
-571 -574 0
573 -574 0
571 -573 574 0
c gate 575 554 -574 0
554 -575 0
-574 -575 0
-554 574 575 0
c gate 576 -568 -575 0
-568 -576 0
-575 -576 0
568 575 576 0
c gate 577 539 -576 0
539 -577 0
-576 -577 0
-539 576 577 0
c gate 578 527 -534 0
527 -578 0
-534 -578 0
-527 534 578 0
c gate 579 537 -578 0
537 -579 0
-578 -579 0
-537 578 579 0
c gate 580 -528 -579 0
-528 -580 0
-579 -580 0
528 579 580 0
c gate 581 -577 -580 0
-577 -581 0
-580 -581 0
577 580 581 0
c gate 582 524 -581 0
524 -582 0
-581 -582 0
-524 581 582 0
c gate 583 520 -582 0
520 -583 0
-582 -583 0
-520 582 583 0
c gate 584 561 -583 0
561 -584 0
-583 -584 0
-561 583 584 0
c gate 585 40 136 0
40 -585 0
136 -585 0
-40 -136 585 0
c gate 586 37 133 0
37 -586 0
133 -586 0
-37 -133 586 0
c gate 587 -558 586 0
-558 -587 0
586 -587 0
558 -586 587 0
c gate 588 39 135 0
39 -588 0
135 -588 0
-39 -135 588 0
c gate 589 38 134 0
38 -589 0
134 -589 0
-38 -134 589 0
c gate 590 -588 -589 0
-588 -590 0
-589 -590 0
588 589 590 0
c gate 591 -587 590 0
-587 -591 0
590 -591 0
587 -590 591 0
c gate 592 557 -591 0
557 -592 0
-591 -592 0
-557 591 592 0
c gate 593 -585 -592 0
-585 -593 0
-592 -593 0
585 592 593 0
c gate 594 -584 593 0
-584 -594 0
593 -594 0
584 -593 594 0
c gate 595 -565 594 0
-565 -595 0
594 -595 0
565 -594 595 0
c gate 596 -41 -137 0
-41 -596 0
-137 -596 0
41 137 596 0
c gate 597 -399 -400 0
-399 -597 0
-400 -597 0
399 400 597 0
c gate 598 -596 597 0
-596 -598 0
597 -598 0
596 -597 598 0
c gate 599 398 598 0
398 -599 0
598 -599 0
-398 -598 599 0
c gate 600 -595 599 0
-595 -600 0
599 -600 0
595 -599 600 0
c gate 601 407 -600 0
407 -601 0
-600 -601 0
-407 600 601 0
c gate 602 -45 -141 0
-45 -602 0
-141 -602 0
45 141 602 0
c gate 603 -391 -602 0
-391 -603 0
-602 -603 0
391 602 603 0
c gate 604 390 603 0
390 -604 0
603 -604 0
-390 -603 604 0
c gate 605 -601 604 0
-601 -605 0
604 -605 0
601 -604 605 0
c gate 606 394 -605 0
394 -606 0
-605 -606 0
-394 605 606 0
c gate 607 387 -606 0
387 -607 0
-606 -607 0
-387 606 607 0
c gate 608 -384 -607 0
-384 -608 0
-607 -608 0
384 607 608 0
c gate 609 -49 -145 0
-49 -609 0
-145 -609 0
49 145 609 0
c gate 610 304 -609 0
304 -610 0
-609 -610 0
-304 609 610 0
c gate 611 309 610 0
309 -611 0
610 -611 0
-309 -610 611 0
c gate 612 316 611 0
316 -612 0
611 -612 0
-316 -611 612 0
c gate 613 285 333 0
285 -613 0
333 -613 0
-285 -333 613 0
c gate 614 612 613 0
612 -614 0
613 -614 0
-612 -613 614 0
c gate 615 -608 614 0
-608 -615 0
614 -615 0
608 -614 615 0
c gate 616 343 -615 0
343 -616 0
-615 -616 0
-343 615 616 0
c gate 617 347 -616 0
347 -617 0
-616 -617 0
-347 616 617 0
c gate 618 -282 -617 0
-282 -618 0
-617 -618 0
282 617 618 0
c gate 619 354 -618 0
354 -619 0
-618 -619 0
-354 618 619 0
c gate 620 362 619 0
362 -620 0
619 -620 0
-362 -619 620 0
c gate 621 277 -620 0
277 -621 0
-620 -621 0
-277 620 621 0
c gate 622 372 -621 0
372 -622 0
-621 -622 0
-372 621 622 0
c gate 623 248 -622 0
248 -623 0
-622 -623 0
-248 622 623 0
c gate 624 379 -623 0
379 -624 0
-623 -624 0
-379 623 624 0
c gate 625 217 -624 0
217 -625 0
-624 -625 0
-217 624 625 0
c gate 626 198 -625 0
198 -626 0
-625 -626 0
-198 625 626 0
c gate 627 195 -626 0
195 -627 0
-626 -627 0
-195 626 627 0
c gate 628 -383 -627 0
-383 -628 0
-627 -628 0
383 627 628 0
c gate 629 383 -626 0
383 -629 0
-626 -629 0
-383 626 629 0
c gate 630 -88 -184 0
-88 -630 0
-184 -630 0
88 184 630 0
c gate 631 -629 -630 0
-629 -631 0
-630 -631 0
629 630 631 0
c gate 632 -628 631 0
-628 -632 0
631 -632 0
628 -631 632 0
c gate 633 198 -217 0
198 -633 0
-217 -633 0
-198 217 633 0
c gate 634 90 186 0
90 -634 0
186 -634 0
-90 -186 634 0
c gate 635 -630 -634 0
-630 -635 0
-634 -635 0
630 634 635 0
c gate 636 -96 -192 0
-96 -636 0
-192 -636 0
96 192 636 0
c gate 637 95 191 0
95 -637 0
191 -637 0
-95 -191 637 0
c gate 638 -636 -637 0
-636 -638 0
-637 -638 0
636 637 638 0
c gate 639 635 638 0
635 -639 0
638 -639 0
-635 -638 639 0
c gate 640 94 -190 0
94 -640 0
-190 -640 0
-94 190 640 0
c gate 641 -94 190 0
-94 -641 0
190 -641 0
94 -190 641 0
c gate 642 -640 -641 0
-640 -642 0
-641 -642 0
640 641 642 0
c gate 643 195 -642 0
195 -643 0
-642 -643 0
-195 642 643 0
c gate 644 639 643 0
639 -644 0
643 -644 0
-639 -643 644 0
c gate 645 92 188 0
92 -645 0
188 -645 0
-92 -188 645 0
c gate 646 91 187 0
91 -646 0
187 -646 0
-91 -187 646 0
c gate 647 -92 -188 0
-92 -647 0
-188 -647 0
92 188 647 0
c gate 648 -646 -647 0
-646 -648 0
-647 -648 0
646 647 648 0
c gate 649 -645 648 0
-645 -649 0
648 -649 0
645 -648 649 0
c gate 650 -95 -191 0
-95 -650 0
-191 -650 0
95 191 650 0
c gate 651 -91 -187 0
-91 -651 0
-187 -651 0
91 187 651 0
c gate 652 -650 -651 0
-650 -652 0
-651 -652 0
650 651 652 0
c gate 653 96 192 0
96 -653 0
192 -653 0
-96 -192 653 0
c gate 654 -93 -189 0
-93 -654 0
-189 -654 0
93 189 654 0
c gate 655 -653 -654 0
-653 -655 0
-654 -655 0
653 654 655 0
c gate 656 652 655 0
652 -656 0
655 -656 0
-652 -655 656 0
c gate 657 -90 -186 0
-90 -657 0
-186 -657 0
90 186 657 0
c gate 658 89 185 0
89 -658 0
185 -658 0
-89 -185 658 0
c gate 659 -657 -658 0
-657 -659 0
-658 -659 0
657 658 659 0
c gate 660 93 189 0
93 -660 0
189 -660 0
-93 -189 660 0
c gate 661 -89 -185 0
-89 -661 0
-185 -661 0
89 185 661 0
c gate 662 -660 -661 0
-660 -662 0
-661 -662 0
660 661 662 0
c gate 663 659 662 0
659 -663 0
662 -663 0
-659 -662 663 0
c gate 664 656 663 0
656 -664 0
663 -664 0
-656 -663 664 0
c gate 665 649 664 0
649 -665 0
664 -665 0
-649 -664 665 0
c gate 666 644 665 0
644 -666 0
665 -666 0
-644 -665 666 0
c gate 667 -633 666 0
-633 -667 0
666 -667 0
633 -666 667 0
c gate 668 -627 667 0
-627 -668 0
667 -668 0
627 -667 668 0
c gate 669 268 -355 0
268 -669 0
-355 -669 0
-268 355 669 0
c gate 670 359 -669 0
359 -670 0
-669 -670 0
-359 669 670 0
c gate 671 -252 -670 0
-252 -671 0
-670 -671 0
252 670 671 0
c gate 672 -253 619 0
-253 -672 0
619 -672 0
253 -619 672 0
c gate 673 270 -672 0
270 -673 0
-672 -673 0
-270 672 673 0
c gate 674 -271 -673 0
-271 -674 0
-673 -674 0
271 673 674 0
c gate 675 671 -674 0
671 -675 0
-674 -675 0
-671 674 675 0
c gate 676 -671 674 0
-671 -676 0
674 -676 0
671 -674 676 0
c gate 677 -675 -676 0
-675 -677 0
-676 -677 0
675 676 677 0
c gate 678 227 368 0
227 -678 0
368 -678 0
-227 -368 678 0
c gate 679 -621 678 0
-621 -679 0
678 -679 0
621 -678 679 0
c gate 680 -364 368 0
-364 -680 0
368 -680 0
364 -368 680 0
c gate 681 -230 -680 0
-230 -681 0
-680 -681 0
230 680 681 0
c gate 682 679 681 0
679 -682 0
681 -682 0
-679 -681 682 0
c gate 683 365 682 0
365 -683 0
682 -683 0
-365 -682 683 0
c gate 684 349 617 0
349 -684 0
617 -684 0
-349 -617 684 0
c gate 685 -594 599 0
-594 -685 0
599 -685 0
594 -599 685 0
c gate 686 407 -685 0
407 -686 0
-685 -686 0
-407 685 686 0
c gate 687 603 -686 0
603 -687 0
-686 -687 0
-603 686 687 0
c gate 688 394 -687 0
394 -688 0
-687 -688 0
-394 687 688 0
c gate 689 387 -688 0
387 -689 0
-688 -689 0
-387 688 689 0
c gate 690 -606 689 0
-606 -690 0
689 -690 0
606 -689 690 0
c gate 691 -384 -690 0
-384 -691 0
-690 -691 0
384 690 691 0
c gate 692 -612 -691 0
-612 -692 0
-691 -692 0
612 691 692 0
c gate 693 608 -689 0
608 -693 0
-689 -693 0
-608 689 693 0
c gate 694 -692 -693 0
-692 -694 0
-693 -694 0
692 693 694 0
c gate 695 565 594 0
565 -695 0
594 -695 0
-565 -594 695 0
c gate 696 507 574 0
507 -696 0
574 -696 0
-507 -574 696 0
c gate 697 471 -494 0
471 -697 0
-494 -697 0
-471 494 697 0
c gate 698 464 697 0
464 -698 0
697 -698 0
-464 -697 698 0
c gate 699 -696 -698 0
-696 -699 0
-698 -699 0
696 698 699 0
c gate 700 -695 699 0
-695 -700 0
699 -700 0
695 -699 700 0
c gate 701 -694 700 0
-694 -701 0
700 -701 0
694 -700 701 0
c gate 702 -684 701 0
-684 -702 0
701 -702 0
684 -701 702 0
c gate 703 -683 702 0
-683 -703 0
702 -703 0
683 -702 703 0
c gate 704 -677 703 0
-677 -704 0
703 -704 0
677 -703 704 0
c gate 705 -199 -374 0
-199 -705 0
-374 -705 0
199 374 705 0
c gate 706 215 -705 0
215 -706 0
-705 -706 0
-215 705 706 0
c gate 707 624 706 0
624 -707 0
706 -707 0
-624 -706 707 0
c gate 708 231 680 0
231 -708 0
680 -708 0
-231 -680 708 0
c gate 709 -679 708 0
-679 -709 0
708 -709 0
679 -708 709 0
c gate 710 -682 -709 0
-682 -710 0
-709 -710 0
682 709 710 0
c gate 711 -232 -710 0
-232 -711 0
-710 -711 0
232 710 711 0
c gate 712 -707 -711 0
-707 -712 0
-711 -712 0
707 711 712 0
c gate 713 704 712 0
704 -713 0
712 -713 0
-704 -712 713 0
c gate 714 -668 713 0
-668 -714 0
713 -714 0
668 -713 714 0
c gate 715 -632 714 0
-632 -715 0
714 -715 0
632 -714 715 0
c PO
-715 0
